instances/in_60_30_8_4.lp
#const n = 60.
#const k = 30.
#const h = 8.
tile(1,16,18).
tile(2,28,12).
tile(3,11,7).
tile(4,8,11).
tile(5,4,29).
tile(6,20,16).
tile(7,25,2).
tile(8,9,24).
tile(9,10,6).
tile(10,4,10).
tile(11,14,6).
tile(12,29,17).
tile(13,3,11).
tile(14,25,6).
tile(15,1,2).
tile(16,11,30).
tile(17,9,17).
tile(18,1,28).
tile(19,5,2).
tile(20,1,26).
tile(21,12,11).
tile(22,11,19).
tile(23,23,21).
tile(24,13,6).
tile(25,11,6).
tile(26,25,10).
tile(27,9,4).
tile(28,17,7).
tile(29,13,30).
tile(30,26,12).
tile(31,16,24).
tile(32,11,3).
tile(33,29,25).
tile(34,7,26).
tile(35,7,19).
tile(36,9,4).
tile(37,5,1).
tile(38,8,25).
tile(39,8,12).
tile(40,13,23).
tile(41,17,29).
tile(42,7,8).
tile(43,30,14).
tile(44,1,7).
tile(45,16,16).
tile(46,17,9).
tile(47,25,7).
tile(48,30,4).
tile(49,2,12).
tile(50,23,22).
tile(51,1,14).
tile(52,29,14).
tile(53,9,17).
tile(54,28,5).
tile(55,11,25).
tile(56,1,20).
tile(57,18,24).
tile(58,29,5).
tile(59,24,24).
tile(60,4,8).
