minizinc/input/in_60_30_8_4.dzn
n = 60;
k = 30;
h = 8;
tiles = array2d(1..n, 1..2,
[ 16,18
, 28,12
, 11,7
, 8,11
, 4,29
, 20,16
, 25,2
, 9,24
, 10,6
, 4,10
, 14,6
, 29,17
, 3,11
, 25,6
, 1,2
, 11,30
, 9,17
, 1,28
, 5,2
, 1,26
, 12,11
, 11,19
, 23,21
, 13,6
, 11,6
, 25,10
, 9,4
, 17,7
, 13,30
, 26,12
, 16,24
, 11,3
, 29,25
, 7,26
, 7,19
, 9,4
, 5,1
, 8,25
, 8,12
, 13,23
, 17,29
, 7,8
, 30,14
, 1,7
, 16,16
, 17,9
, 25,7
, 30,4
, 2,12
, 23,22
, 1,14
, 29,14
, 9,17
, 28,5
, 11,25
, 1,20
, 18,24
, 29,5
, 24,24
, 4,8
]);